21872 17910 15166
21415 18353 16888
21910 17837 16135
18428 15235 19375
22054 17501 16137
20600 17918 18039
19094 19019 15530
20958 18299 17442
21752 17094 17415
20102 17175 18748
21941 17570 16680
18632 19028 15375
20749 18029 17856
20793 18961 15516
21550 18369 16002
20648 18729 17112
20287 18876 16927
21218 18725 15506
21573 18243 16792
18420 19048 14120
21622 18236 16644
22055 17126 15186
22050 17599 15206
21723 17536 17388
20763 18919 15913
20561 17206 18533
21693 18183 14960
21040 17416 18104
21395 18559 16567
21756 18090 15773
19620 16936 18964
19461 18048 18123
21940 17408 16695
19690 17709 18414
19663 19027 14625
20194 18911 16818
19631 18006 18138
21398 17797 17507
20539 16644 18600
19628 19028 14997
21218 17085 17948
19239 16463 19220
20098 18400 17662
20476 18967 16309
19166 19037 14842
19409 16421 19235
21189 17527 17921
20060 16434 19029
19231 17661 18538
